
        $ From http://www.csplib.org/Problems/prob009/data/helmut.pdf
        $ Problem number 7
        $ Sequence length : 22
        language ESSENCE' 1.0
        letting sizemaster be 154
        letting sizes be sequence(2,5,9,11,16,17,19,21,22,24,26,30,31,33,35,36,41,46,47,50,52,61)
        